NAME          MIP_VARIED_EX03
ROWS
 N  OBJ
 L  C1
 G  C2
COLUMNS
    X1      OBJ       6
    X1      C1             1
    X1      C2             3
    X2      OBJ       5
    X2      C1             3
    X2      C2             1
    X3      OBJ       5
RHS
    RHS1     C1      7
    RHS1     C2      5
BOUNDS
 LI BND1     X1      0
 UI BND1     X1      10
 LI BND1     X2      0
 UI BND1     X2      10
 LI BND1     X3      0
 UI BND1     X3      10
MARK0000 'MARKER'                 'INTORG'
    X3      'MARKER'
    X2      'MARKER'
    X1      'MARKER'
MARK0001 'MARKER'                 'INTEND'
ENDATA